
Gurobi 8.1.1 (win64) logging started 11/25/19 20:50:35

Changed value of parameter LogFile to logs/full/qp/full-07-15-1.log
   Prev: gurobi.log  Default: 
Changed value of parameter LogToConsole to 0
   Prev: 1  Min: 0  Max: 1  Default: 1
Changed value of parameter TimeLimit to 3600.0
   Prev: 1e+100  Min: 0.0  Max: 1e+100  Default: 1e+100
Optimize a model with 1 rows, 443 columns and 1 nonzeros
Model has 21 quadratic constraints
Variable types: 0 continuous, 443 integer (443 binary)
Coefficient statistics:
  Matrix range     [1e+00, 1e+00]
  QMatrix range    [1e+00, 1e+00]
  Objective range  [1e+00, 1e+00]
  Bounds range     [1e+00, 1e+00]
  RHS range        [1e+00, 1e+00]
  QRHS range       [1e+00, 1e+00]
Found heuristic solution: objective 443.0000000
Presolve removed 1 rows and 1 columns
Presolve time: 0.01s
Presolved: 0 rows, 442 columns, 0 nonzeros
Variable types: 0 continuous, 442 integer (442 binary)

Root relaxation: objective 1.000000e+00, 0 iterations, 0.00 seconds

    Nodes    |    Current Node    |     Objective Bounds      |     Work
 Expl Unexpl |  Obj  Depth IntInf | Incumbent    BestBd   Gap | It/Node Time

     0     0    2.00000    0    2  443.00000    2.00000   100%     -    0s
H    0     0                      11.0000000    2.00000  81.8%     -    0s
     0     0    2.00000    0    2   11.00000    2.00000  81.8%     -    0s
     0     2    2.00000    0    2   11.00000    2.00000  81.8%     -    0s
   215    92    2.00000   49    2   11.00000    2.00000  81.8%   1.3    5s
H  276   115                      10.0000000    2.00000  80.0%   1.3    7s
   332   152    2.00000   76    2   10.00000    2.00000  80.0%   1.3   10s
   443   206    2.00000  103    -   10.00000    2.00000  80.0%   1.3   16s
   515   237    2.00000  120    2   10.00000    2.00000  80.0%   1.3   21s
   584   273    2.00000  137    -   10.00000    2.00000  80.0%   1.3   27s
   613   290    2.00000  144    2   10.00000    2.00000  80.0%   1.3   30s
H  676   328                       9.0000000    2.00000  77.8%   1.3   34s
   689   330    2.00000  165    2    9.00000    2.00000  77.8%   1.3   37s
H  704   338                       8.0000000    2.00000  75.0%   1.3   37s
   727   344    2.00000  173    -    8.00000    2.00000  75.0%   1.3   41s
   769   363    2.00000  184    -    8.00000    2.00000  75.0%   1.3   46s
   837   401    2.00000  201    -    8.00000    2.00000  75.0%   1.3   54s
   865   423    3.00000  217    -    8.00000    2.00000  75.0%   1.3   55s
   929   439    2.00000  223    -    8.00000    2.00000  75.0%   1.3   63s
   953   465    2.00000  230    2    8.00000    2.00000  75.0%   1.3   67s
   987   476    2.00000  238    -    8.00000    2.00000  75.0%   1.3   72s
  1032   493    2.00000  249    -    8.00000    2.00000  75.0%   1.3   77s
  1062   514    2.00000  258    -    8.00000    2.00000  75.0%   1.3   82s
  1103   529    2.00000  267    -    8.00000    2.00000  75.0%   1.3   88s
  1148   548    2.00000  278    -    8.00000    2.00000  75.0%   1.3   94s
  1195   571    2.00000  290    -    8.00000    2.00000  75.0%   1.3   99s
  1238   594    2.00000  301    2    8.00000    2.00000  75.0%   1.3  105s
  1278   618    2.00000  311    2    8.00000    2.00000  75.0%   1.3  110s
  1320   638    2.00000  321    -    8.00000    2.00000  75.0%   1.3  116s
  1364   655    2.00000  332    -    8.00000    2.00000  75.0%   1.3  122s
  1417   656    3.00000  344    -    8.00000    2.00000  75.0%   1.3  129s
  1450   672    3.00000  117    -    8.00000    2.00000  75.0%   1.3  130s
  1464   683    5.00000  361    -    8.00000    2.00000  75.0%   1.3  136s
  1519   719    6.00000  378    -    8.00000    2.00000  75.0%   1.3  141s
  1562   690    6.00000  378    -    8.00000    2.00000  75.0%   1.3  151s
  1619   679    6.00000  378    -    8.00000    2.00000  75.0%   1.3  161s
  1668   681    6.00000  378    -    8.00000    2.00000  75.0%   1.3  172s
  1717   682    6.00000  378    -    8.00000    2.00000  75.0%   1.3  183s
  1763   680    6.00000  378    -    8.00000    2.00000  75.0%   1.3  194s
  1783   700    3.00000  138    -    8.00000    2.00000  75.0%   1.3  195s
  1805   680    6.00000  378    -    8.00000    2.00000  75.0%   1.3  209s
  1857   682    6.00000  378    -    8.00000    2.00000  75.0%   1.3  224s
  1912   750    3.00000  266    -    8.00000    2.00000  75.0%   1.3  225s
  1916   708    6.00000  378    -    8.00000    2.00000  75.0%   1.3  238s
  1981   711    6.00000  378    -    8.00000    3.00000  62.5%   1.3  265s
  2112   710    3.00000   36    2    8.00000    3.00000  62.5%   1.3  288s
  2225   768    6.00000  378    -    8.00000    3.00000  62.5%   1.3  313s
  2322   797    6.00000  378    -    8.00000    3.00000  62.5%   1.3  336s
  2421   829    6.00000  378    -    8.00000    3.00000  62.5%   1.2  363s
  2643   963    4.00000  138    2    8.00000    3.00000  62.5%   1.2  387s
  2748  1003    4.00000  277    2    8.00000    3.00000  62.5%   1.2  413s
  2848  1028    4.00000  307    2    8.00000    3.00000  62.5%   1.2  439s
  2934  1121    4.00000  328    -    8.00000    3.00000  62.5%   1.2  440s
  2937  1073    4.00000  318    2    8.00000    3.00000  62.5%   1.2  465s
  3034  1091    3.00000  179    2    8.00000    3.00000  62.5%   1.2  497s
  3161  1148    4.00000  326    2    8.00000    3.00000  62.5%   1.2  527s
  3268  1177    4.00000  327    2    8.00000    3.00000  62.5%   1.2  559s
  3308  1204    4.00000  341    -    8.00000    3.00000  62.5%   1.2  560s
  3365  1198    3.00000  341    2    8.00000    3.00000  62.5%   1.2  597s
  3482  1244    5.00000  361    -    8.00000    3.00000  62.5%   1.2  639s
  3520  1272    4.00000  245    -    8.00000    3.00000  62.5%   1.2  640s
  3628  1282    5.00000  361    -    8.00000    3.00000  62.5%   1.2  687s
  3745  1340    4.00000   73    2    8.00000    3.00000  62.5%   1.2  724s
  3753  1345    6.00000  367    -    8.00000    3.00000  62.5%   1.2  725s
  3878  1415    6.00000  369    2    8.00000    3.00000  62.5%   1.2  769s
  3887  1420    7.00000  367    -    8.00000    3.00000  62.5%   1.2  770s
  4047  1473    3.00000   74    -    8.00000    3.00000  62.5%   1.2  822s
  4233  1566    4.00000  347    2    8.00000    3.00000  62.5%   1.2  865s
  4355  1615    4.00000  348    2    8.00000    3.00000  62.5%   1.2  914s
  4433  1626    4.00000  142    -    8.00000    3.00000  62.5%   1.2  915s
  4629  1928    3.00000   96    2    8.00000    3.00000  62.5%   1.2 1297s
  4631  1929    4.00000   66 8927    8.00000    3.00000  62.5%   1.2 1733s
  4633  1932    4.00000  247    2    8.00000    3.00000  62.5%  17.4 2894s
  4635  1933    3.00000  148 8918    8.00000    3.00000  62.5%  17.4 3393s

Cutting planes:
  Gomory: 1
  Zero half: 3

Explored 4635 nodes (196885 simplex iterations) in 3600.80 seconds
Thread count was 4 (of 4 available processors)

Solution count 5: 8 9 10 ... 443

Time limit reached
Best objective 8.000000000000e+00, best bound 3.000000000000e+00, gap 62.5000%
Warning: Q constraint 0 doesn't have a name
